data;


param d:= 100;
param r:=5;
param p:=0.200000;
param M:=1000;
param U:=
         1         1        5.719968e-01
         2         1        1.399770e+00
         3         1       -8.223222e-01
         4         1       -7.625207e-01
         5         1       -9.971132e-01
         6         1        1.820698e+00
         7         1       -2.303923e+00
         8         1        5.348766e-01
         9         1       -6.510589e-01
        10         1       -1.527294e+00
        11         1        2.485145e-01
        12         1       -1.363089e+00
        13         1       -7.874589e-02
        14         1        9.696501e-01
        15         1       -1.280446e+00
        16         1       -7.532052e-01
        17         1       -1.291348e+00
        18         1       -7.646200e-01
        19         1       -1.598369e-01
        20         1        2.184035e+00
        21         1       -1.763091e-01
        22         1       -1.641237e+00
        23         1       -6.310011e-01
        24         1       -3.056813e-01
        25         1        1.000352e+00
        26         1        1.042355e+00
        27         1       -9.739667e-01
        28         1       -1.473289e+00
        29         1        6.097587e-01
        30         1       -1.260381e-01
        31         1       -1.198843e+00
        32         1       -8.900039e-01
        33         1       -1.312611e-01
        34         1       -4.512059e-01
        35         1        4.606542e-01
        36         1       -3.684066e-01
        37         1       -1.443930e-02
        38         1        1.386549e+00
        39         1        8.187025e-01
        40         1        5.185022e-01
        41         1        1.737630e+00
        42         1       -1.193484e+00
        43         1       -2.260371e-01
        44         1       -1.520465e+00
        45         1        2.164244e-01
        46         1       -9.439165e-01
        47         1        4.559624e-01
        48         1       -1.049690e+00
        49         1       -2.216002e+00
        50         1        1.462288e-01
        51         1        9.723702e-01
        52         1        9.159147e-01
        53         1       -6.707196e-02
        54         1        4.644157e-02
        55         1        2.007648e+00
        56         1       -1.351333e+00
        57         1        6.160628e-02
        58         1       -2.167519e+00
        59         1        2.160433e+00
        60         1        1.378804e-02
        61         1       -1.503074e+00
        62         1       -2.740156e-01
        63         1        1.598808e+00
        64         1       -7.932341e-01
        65         1        1.291556e+00
        66         1        9.535243e-01
        67         1       -1.402545e+00
        68         1       -5.632270e-01
        69         1       -1.566675e+00
        70         1       -4.063448e-01
        71         1        1.040391e+00
        72         1        7.516781e-01
        73         1       -1.173037e+00
        74         1        1.779947e+00
        75         1       -1.618044e+00
        76         1        1.756746e+00
        77         1       -6.506200e-01
        78         1        2.452746e-01
        79         1       -2.196503e+00
        80         1        1.309814e+00
        81         1        1.005473e-01
        82         1       -5.474461e-01
        83         1       -5.220992e-01
        84         1       -5.326271e-01
        85         1       -1.297140e+00
        86         1       -7.185206e-01
        87         1        7.130111e-01
        88         1        8.845576e-01
        89         1       -8.308153e-01
        90         1       -7.959281e-01
        91         1        9.081977e-01
        92         1       -1.597264e+00
        93         1       -2.091182e-01
        94         1        1.315855e+00
        95         1       -6.146633e-01
        96         1        3.088925e-01
        97         1        5.037591e-01
        98         1        3.168910e-02
        99         1       -1.636058e-01
       100         1       -1.458497e+00
         1         2       -1.158195e+00
         2         2       -5.163761e-01
         3         2       -1.796319e-01
         4         2       -9.841797e-02
         5         2       -5.019159e-01
         6         2        9.103614e-01
         7         2        3.739147e-01
         8         2        1.579972e-01
         9         2       -3.339570e-01
        10         2        3.504983e+00
        11         2       -1.581347e-01
        12         2       -1.333118e-01
        13         2        3.067324e-01
        14         2        1.116878e-01
        15         2       -1.458969e-01
        16         2        6.235423e-01
        17         2        1.665699e+00
        18         2       -2.825716e+00
        19         2       -1.104596e+00
        20         2        8.935043e-01
        21         2        1.086844e+00
        22         2        4.384461e-01
        23         2        3.620883e-01
        24         2        1.787938e+00
        25         2       -5.364338e-01
        26         2        3.030109e-01
        27         2       -6.816337e-02
        28         2        7.756819e-01
        29         2       -1.415678e+00
        30         2       -3.594909e-01
        31         2       -8.042109e-01
        32         2        6.832851e-01
        33         2       -2.480084e+00
        34         2       -7.113305e-02
        35         2        9.557297e-01
        36         2        2.880046e+00
        37         2       -2.178965e-01
        38         2        6.169947e-01
        39         2        9.111816e-01
        40         2       -3.635978e-01
        41         2       -4.288047e-01
        42         2       -7.120166e-01
        43         2        1.320044e+00
        44         2       -4.216350e-01
        45         2       -6.859871e-01
        46         2       -4.890797e-01
        47         2       -7.170451e-01
        48         2       -8.529904e-01
        49         2       -6.865415e-01
        50         2       -1.876486e-02
        51         2        3.555440e-01
        52         2        3.983679e-01
        53         2        1.437391e-01
        54         2        1.733455e+00
        55         2        1.534009e+00
        56         2       -9.075508e-01
        57         2       -3.011125e-01
        58         2       -6.467046e-01
        59         2        1.389995e-01
        60         2       -9.670474e-02
        61         2        9.881088e-01
        62         2        6.228646e-01
        63         2       -4.370209e-01
        64         2       -8.511229e-01
        65         2        1.131633e+00
        66         2        6.482437e-01
        67         2       -6.092620e-01
        68         2        6.778609e-02
        69         2       -1.806144e+00
        70         2        3.603762e-01
        71         2        6.585075e-01
        72         2        1.204923e+00
        73         2       -1.004298e+00
        74         2       -3.344896e-01
        75         2        5.415229e-01
        76         2       -2.529277e-01
        77         2       -8.708892e-01
        78         2       -1.514800e+00
        79         2        3.993577e-01
        80         2        1.133492e+00
        81         2        3.443583e-01
        82         2        7.348047e-01
        83         2       -1.262923e+00
        84         2        1.110005e+00
        85         2       -9.358253e-01
        86         2       -2.321989e-01
        87         2        2.434756e-01
        88         2       -1.944078e+00
        89         2       -1.383248e-01
        90         2       -5.693143e-01
        91         2       -5.132454e-01
        92         2       -1.032879e+00
        93         2       -7.610037e-01
        94         2        6.602691e-01
        95         2        1.916644e-02
        96         2        4.392257e-01
        97         2       -1.296267e+00
        98         2        2.860461e-01
        99         2        1.188969e+00
       100         2       -4.303783e-01
         1         3       -1.147794e+00
         2         3       -1.782624e-01
         3         3        2.996758e-01
         4         3       -3.794277e-01
         5         3        4.264656e-01
         6         3       -4.813206e-01
         7         3       -1.436329e+00
         8         3        1.929829e-01
         9         3        1.336252e-01
        10         3       -1.696083e+00
        11         3       -3.820854e-01
        12         3        1.258335e+00
        13         3       -9.681480e-02
        14         3        1.768876e-01
        15         3       -1.507892e+00
        16         3        6.196898e-01
        17         3        4.005260e-01
        18         3       -1.700042e+00
        19         3       -1.074026e+00
        20         3       -9.229092e-01
        21         3        3.557596e-01
        22         3        1.618798e+00
        23         3        1.632720e+00
        24         3        1.039803e+00
        25         3        9.349262e-01
        26         3       -2.388167e-02
        27         3        3.178735e-01
        28         3        7.074518e-01
        29         3        1.920014e+00
        30         3       -1.081422e+00
        31         3       -9.935845e-01
        32         3       -5.137650e-01
        33         3       -5.259168e-01
        34         3        1.509073e+00
        35         3       -3.471903e-02
        36         3        1.288359e+00
        37         3        1.142217e-01
        38         3        9.358878e-01
        39         3        8.174538e-04
        40         3        5.067221e-01
        41         3       -6.294658e-01
        42         3       -1.557487e+00
        43         3        8.232564e-01
        44         3        5.995110e-02
        45         3        1.775151e+00
        46         3       -1.588995e+00
        47         3       -1.565458e+00
        48         3       -1.022841e-01
        49         3       -2.095253e-01
        50         3       -6.008926e-01
        51         3        9.660801e-01
        52         3        6.265227e-01
        53         3       -6.030392e-01
        54         3        7.599708e-01
        55         3        5.071881e-01
        56         3        5.370483e-01
        57         3       -9.728938e-01
        58         3        5.458596e-01
        59         3       -1.254911e-01
        60         3       -1.344366e-01
        61         3        1.394186e-01
        62         3        3.955640e-01
        63         3        7.055062e-01
        64         3       -1.660945e+00
        65         3        8.298399e-01
        66         3       -2.141300e-01
        67         3        2.709290e+00
        68         3        1.429786e+00
        69         3        6.613365e-01
        70         3        1.146810e-01
        71         3       -6.042258e-01
        72         3       -2.152461e+00
        73         3        8.512894e-01
        74         3       -1.107549e+00
        75         3       -1.390481e+00
        76         3        4.209205e-01
        77         3       -7.393033e-01
        78         3       -6.183683e-01
        79         3        9.181818e-01
        80         3       -1.677469e-01
        81         3        1.314618e+00
        82         3        1.155346e-01
        83         3        4.565392e-01
        84         3        1.317282e+00
        85         3        3.301765e-01
        86         3        1.633044e+00
        87         3       -8.866138e-01
        88         3       -6.273105e-01
        89         3        8.266266e-01
        90         3        1.069194e+00
        91         3       -7.619933e-01
        92         3       -1.431111e-01
        93         3        5.164480e-01
        94         3       -1.468170e+00
        95         3       -1.305017e+00
        96         3        7.891801e-01
        97         3        4.979088e-01
        98         3       -4.057377e-01
        99         3       -7.305657e-02
       100         3       -1.531190e+00
         1         4       -6.734035e-01
         2         4       -9.650916e-01
         3         4        9.665381e-01
         4         4        6.673769e-02
         5         4       -1.278704e+00
         6         4        4.899384e-01
         7         4       -6.508648e-01
         8         4       -6.517262e-01
         9         4        3.283034e-01
        10         4       -7.399965e-01
        11         4        3.026339e-01
        12         4        2.912971e-01
        13         4       -2.580146e-01
        14         4        6.607168e-01
        15         4       -9.935799e-01
        16         4       -1.074347e+00
        17         4        9.539083e-01
        18         4       -2.302445e-01
        19         4       -9.669333e-01
        20         4       -1.360412e+00
        21         4       -1.030086e+00
        22         4        8.173630e-02
        23         4        1.513904e+00
        24         4        5.023483e-01
        25         4       -1.151922e+00
        26         4        6.840156e-01
        27         4       -1.638044e+00
        28         4       -9.656674e-01
        29         4       -7.965125e-01
        30         4        1.267037e+00
        31         4        4.601928e-01
        32         4       -7.248585e-01
        33         4       -7.771421e-01
        34         4       -4.117723e-01
        35         4        5.016706e-01
        36         4        3.376246e-01
        37         4       -1.988199e-01
        38         4        4.737174e-01
        39         4        2.944765e-03
        40         4       -5.861635e-01
        41         4        6.716781e-01
        42         4       -1.640291e+00
        43         4        3.644998e-01
        44         4       -8.277429e-01
        45         4        3.105193e-01
        46         4        6.116126e-01
        47         4       -4.781430e-01
        48         4        1.340112e+00
        49         4        2.371294e-01
        50         4        2.394414e-01
        51         4        6.510539e-01
        52         4       -5.177232e-01
        53         4        6.616555e-01
        54         4       -1.754509e-01
        55         4        1.421600e+00
        56         4       -9.539116e-01
        57         4        8.459712e-01
        58         4        2.365955e-01
        59         4       -9.279261e-01
        60         4       -1.396886e+00
        61         4       -5.913314e-01
        62         4       -1.393399e+00
        63         4       -4.886327e-02
        64         4        1.098930e+00
        65         4        1.207638e+00
        66         4        1.288754e+00
        67         4        2.263357e-01
        68         4        1.204197e+00
        69         4       -6.344302e-01
        70         4        1.042565e+00
        71         4        9.382351e-02
        72         4       -1.403827e+00
        73         4       -9.744741e-01
        74         4        1.120254e-01
        75         4       -1.134372e+00
        76         4        1.636662e+00
        77         4       -2.637688e-01
        78         4        2.598538e+00
        79         4        5.311410e-01
        80         4        1.133825e-02
        81         4       -1.615699e+00
        82         4        4.356190e-01
        83         4       -1.613741e+00
        84         4        8.295150e-01
        85         4        5.281716e-01
        86         4        1.684069e+00
        87         4       -1.529424e+00
        88         4        7.321326e-03
        89         4       -4.485466e-01
        90         4       -4.445143e-01
        91         4        6.696442e-01
        92         4        1.980471e+00
        93         4       -4.841630e-02
        94         4       -1.809749e+00
        95         4        4.067454e-01
        96         4        3.165368e-01
        97         4       -1.630506e+00
        98         4       -1.239745e+00
        99         4        6.794693e-01
       100         4       -1.130327e+00
         1         5        9.086133e-02
         2         5       -2.797577e-01
         3         5        6.064745e-01
         4         5        9.901880e-01
         5         5        5.999567e-01
         6         5       -1.909805e+00
         7         5        1.719562e-01
         8         5        2.877437e-01
         9         5       -8.819423e-01
        10         5       -4.937246e-01
        11         5       -1.530435e+00
        12         5       -7.119998e-02
        13         5       -1.435860e+00
        14         5       -6.497801e-01
        15         5        3.498503e-01
        16         5       -2.330831e+00
        17         5        4.336030e-01
        18         5       -3.150293e-01
        19         5        2.218437e-01
        20         5        4.020588e-01
        21         5       -1.112099e+00
        22         5        7.148188e-01
        23         5        9.478147e-01
        24         5       -2.935631e-01
        25         5       -2.327855e+00
        26         5       -1.069533e+00
        27         5       -1.880132e-01
        28         5        1.810233e-01
        29         5       -4.805674e-01
        30         5       -1.319886e+00
        31         5       -8.395592e-01
        32         5       -8.310976e-02
        33         5       -1.499952e+00
        34         5       -1.689605e-01
        35         5       -4.069994e-01
        36         5       -2.028872e+00
        37         5       -3.091356e-01
        38         5       -1.279300e+00
        39         5       -2.170929e-01
        40         5       -3.320218e-01
        41         5       -1.786484e+00
        42         5        1.028610e+00
        43         5        6.425544e-01
        44         5        1.321011e+00
        45         5       -1.814626e+00
        46         5        5.504557e-01
        47         5        2.905877e-01
        48         5       -1.091773e+00
        49         5       -9.776674e-01
        50         5        2.049631e-01
        51         5        3.883711e-01
        52         5        6.966209e-01
        53         5        3.492836e-01
        54         5        6.675851e-01
        55         5       -7.096678e-01
        56         5       -1.591410e+00
        57         5       -1.926222e-01
        58         5        9.604387e-01
        59         5       -2.576571e-01
        60         5        5.913926e-02
        61         5        1.762522e+00
        62         5       -9.081194e-02
        63         5        1.295920e+00
        64         5        1.133762e+00
        65         5       -1.084757e+00
        66         5        1.268995e+00
        67         5        1.044220e+00
        68         5       -3.410773e-01
        69         5       -4.768041e-01
        70         5        8.761960e-01
        71         5       -6.083128e-02
        72         5       -6.111601e-01
        73         5       -2.208027e-01
        74         5        8.759629e-01
        75         5       -7.350341e-01
        76         5        3.764877e-01
        77         5       -4.253689e-01
        78         5       -1.636280e+00
        79         5       -1.743986e-01
        80         5        1.046482e+00
        81         5       -5.399793e-01
        82         5       -1.623140e+00
        83         5        3.317896e-01
        84         5        1.200330e+00
        85         5       -5.692653e-01
        86         5       -5.963604e-01
        87         5        1.050170e+00
        88         5        4.804063e-01
        89         5        1.698623e-01
        90         5        6.141118e-01
        91         5        3.317551e-01
        92         5        7.568735e-01
        93         5       -7.877551e-01
        94         5       -1.825321e+00
        95         5       -1.181301e+00
        96         5       -3.614629e-01
        97         5        9.115035e-01
        98         5       -1.550236e+00
        99         5        9.076893e-01
       100         5       -8.834237e-01
;

param theta:=
    1       -3.503366e-01
    2       -2.043073e-01
    3        6.071733e-02
    4        2.245295e-01
    5       -1.172215e-01
;
param X_true:=
    1       -2.618643e-01
    2       -5.915203e-01
    3        4.495743e-01
    4        1.783187e-01
    5        1.424847e-01
    6       -4.024407e-01
    7        6.411180e-01
    8       -4.123206e-01
    9        4.447763e-01
   10       -3.855882e-01
   11        2.678961e-01
   12        5.336680e-01
   13        1.172687e-01
   14       -1.438274e-01
   15       -1.023653e-01
   16        7.803465e-02
   17        3.573620e-01
   18        9.101237e-01
   19        3.361375e-02
   20       -1.318212e+00
   21       -2.156771e-01
   22        6.690449e-01
   23        5.049676e-01
   24       -1.070242e-01
   25       -9.612134e-02
   26        6.565967e-02
   27        1.006224e-01
   28        2.805904e-01
   29       -1.687920e-02
   30        3.548786e-01
   31        4.737143e-01
   32       -1.353784e-02
   33        5.856083e-01
   34        2.020160e-01
   35       -8.320712e-02
   36       -7.442715e-02
   37        1.591462e-01
   38       -3.665171e-01
   39       -5.136892e-01
   40       -2.569761e-01
   41       -2.674424e-01
   42        3.920977e-02
   43       -1.828634e-01
   44        1.214279e-01
   45        5.774846e-01
   46        4.835305e-01
   47       -1.336431e-01
   48        1.071466e+00
   49        1.251615e+00
   50       -7.304965e-02
   51       -1.636768e-01
   52       -4.918046e-01
   53        2.043260e-01
   54       -4.837570e-01
   55       -4.276141e-01
   56        6.680651e-01
   57        5.461424e-02
   58        8.467703e-01
   59       -9.408103e-01
   60       -2.618692e-01
   61        5.329822e-02
   62       -4.883488e-01
   63       -5.916061e-01
   64        5.056952e-01
   65       -3.143603e-01
   66       -1.798598e-01
   67        7.092915e-01
   68        6.604874e-01
   69        7.867947e-01
   70        3.267706e-01
   71       -6.215194e-01
   72       -9.565476e-01
   73        5.499117e-01
   74       -8.031946e-01
   75        2.465721e-01
   76       -3.910104e-01
   77        2.892470e-01
   78        1.067812e+00
   79        7.898345e-01
   80       -8.297805e-01
   81       -2.456375e-01
   82        2.848207e-01
   83       -4.701905e-03
   84        1.058477e-01
   85        8.252612e-01
   86        9.955071e-01
   87       -9.239034e-01
   88       -1.211032e-01
   89        3.475234e-01
   90        3.149353e-01
   91        4.019423e-03
   92        1.008427e+00
   93        4.562198e-01
   94       -9.039810e-01
   95        4.558605e-01
   96        6.214582e-02
   97       -1.635529e-01
   98       -2.817527e-01
   99        4.831358e-02
  100        5.188545e-01
;
param X:=
    1       -9.874583e-01
    2       -5.915203e-01
    3        4.495743e-01
    4        1.783187e-01
    5        1.424847e-01
    6       -4.024407e-01
    7        6.411180e-01
    8       -4.123206e-01
    9        4.447763e-01
   10       -3.855882e-01
   11        2.678961e-01
   12        5.336680e-01
   13        1.172687e-01
   14       -1.438274e-01
   15       -1.023653e-01
   16        7.803465e-02
   17       -1.174693e-01
   18        9.101237e-01
   19        3.361375e-02
   20       -1.318212e+00
   21       -2.156771e-01
   22        6.690449e-01
   23        5.049676e-01
   24       -1.070242e-01
   25       -9.612134e-02
   26        6.565967e-02
   27        9.310497e-01
   28        1.928974e-01
   29       -1.687920e-02
   30        3.548786e-01
   31        4.737143e-01
   32       -1.353784e-02
   33        1.273425e+00
   34        1.397300e+00
   35       -8.320712e-02
   36       -7.442715e-02
   37       -2.089957e+00
   38       -3.665171e-01
   39       -5.136892e-01
   40       -2.569761e-01
   41       -2.674424e-01
   42        3.920977e-02
   43       -1.828634e-01
   44        4.331193e-02
   45        5.774846e-01
   46        4.835305e-01
   47       -1.336431e-01
   48        4.270375e-01
   49        1.251615e+00
   50       -7.304965e-02
   51       -1.636768e-01
   52       -4.918046e-01
   53        2.043260e-01
   54       -4.837570e-01
   55       -1.363059e+00
   56        6.680651e-01
   57        5.461424e-02
   58        8.467703e-01
   59       -9.408103e-01
   60        4.001770e-01
   61        5.329822e-02
   62        5.767029e-01
   63       -5.669320e-01
   64        5.056952e-01
   65       -3.143603e-01
   66       -1.798598e-01
   67        7.092915e-01
   68        6.604874e-01
   69        7.867947e-01
   70       -1.532884e+00
   71       -6.215194e-01
   72       -9.565476e-01
   73        5.499117e-01
   74       -8.031946e-01
   75        2.465721e-01
   76       -1.745891e+00
   77        2.892470e-01
   78        1.067812e+00
   79       -1.153780e+00
   80       -8.297805e-01
   81       -3.109903e-01
   82        6.035999e-01
   83       -4.701905e-03
   84        1.058477e-01
   85        8.252612e-01
   86        9.955071e-01
   87       -9.239034e-01
   88       -1.280625e-01
   89        3.475234e-01
   90        3.149353e-01
   91        4.019423e-03
   92        1.008427e+00
   93        4.063095e-02
   94       -9.039810e-01
   95        4.558605e-01
   96        6.214582e-02
   97       -1.635529e-01
   98       -2.817527e-01
   99        4.831358e-02
  100        5.188545e-01
;
param outliervec:=
    1    1
    2    0
    3    0
    4    0
    5    0
    6    0
    7    0
    8    0
    9    0
   10    0
   11    0
   12    0
   13    0
   14    0
   15    0
   16    0
   17    1
   18    0
   19    0
   20    0
   21    0
   22    0
   23    0
   24    0
   25    0
   26    0
   27    1
   28    1
   29    0
   30    0
   31    0
   32    0
   33    1
   34    1
   35    0
   36    0
   37    1
   38    0
   39    0
   40    0
   41    0
   42    0
   43    0
   44    1
   45    0
   46    0
   47    0
   48    1
   49    0
   50    0
   51    0
   52    0
   53    0
   54    0
   55    1
   56    0
   57    0
   58    0
   59    0
   60    1
   61    0
   62    1
   63    1
   64    0
   65    0
   66    0
   67    0
   68    0
   69    0
   70    1
   71    0
   72    0
   73    0
   74    0
   75    0
   76    1
   77    0
   78    0
   79    1
   80    0
   81    1
   82    1
   83    0
   84    0
   85    0
   86    0
   87    0
   88    1
   89    0
   90    0
   91    0
   92    0
   93    1
   94    0
   95    0
   96    0
   97    0
   98    0
   99    0
  100    0
;